c File: data_files/evolved_graphs/g0327.col
c
c Auto generated graph
c
p edge 100 880
e 1 5
e 1 7
e 1 8
e 1 18
e 1 19
e 1 21
e 1 24
e 1 27
e 1 48
e 1 58
e 1 59
e 1 60
e 1 61
e 1 62
e 1 63
e 1 64
e 1 65
e 1 66
e 1 67
e 1 68
e 1 69
e 1 70
e 1 71
e 1 72
e 1 73
e 1 74
e 1 75
e 1 82
e 1 83
e 1 84
e 1 87
e 1 88
e 1 89
e 1 90
e 1 92
e 1 93
e 2 9
e 2 11
e 2 18
e 2 39
e 2 41
e 2 42
e 2 43
e 2 48
e 2 58
e 2 59
e 2 60
e 2 61
e 2 62
e 2 63
e 2 64
e 2 65
e 2 66
e 2 67
e 2 68
e 2 69
e 2 70
e 2 71
e 2 72
e 2 73
e 2 74
e 2 75
e 2 82
e 2 83
e 2 84
e 2 85
e 2 86
e 2 87
e 2 88
e 2 89
e 2 90
e 2 91
e 2 92
e 2 93
e 3 9
e 3 16
e 3 23
e 3 31
e 3 41
e 3 48
e 3 49
e 3 58
e 3 59
e 3 60
e 3 61
e 3 62
e 3 63
e 3 64
e 3 65
e 3 66
e 3 67
e 3 68
e 3 69
e 3 70
e 3 71
e 3 72
e 3 74
e 3 75
e 3 76
e 3 77
e 3 79
e 3 80
e 3 83
e 3 84
e 3 85
e 3 86
e 3 87
e 3 89
e 3 90
e 3 91
e 3 92
e 3 93
e 4 5
e 4 7
e 4 9
e 4 15
e 4 20
e 4 25
e 4 33
e 4 38
e 4 48
e 4 54
e 4 58
e 4 59
e 4 61
e 4 62
e 4 63
e 4 64
e 4 66
e 4 67
e 4 69
e 4 89
e 4 90
e 4 91
e 4 92
e 4 93
e 5 9
e 5 11
e 5 13
e 5 15
e 5 22
e 5 27
e 5 29
e 5 39
e 5 40
e 5 48
e 5 58
e 5 59
e 5 60
e 5 61
e 5 62
e 5 63
e 5 64
e 5 65
e 5 66
e 5 67
e 5 69
e 5 89
e 5 90
e 5 91
e 5 92
e 5 93
e 6 8
e 6 9
e 6 11
e 6 15
e 6 19
e 6 22
e 6 25
e 6 42
e 6 47
e 6 48
e 6 50
e 6 58
e 6 59
e 6 60
e 6 61
e 6 62
e 6 63
e 6 64
e 6 65
e 6 66
e 6 67
e 6 68
e 6 69
e 6 89
e 6 90
e 6 91
e 6 92
e 6 93
e 6 99
e 7 10
e 7 14
e 7 18
e 7 24
e 7 26
e 7 28
e 7 39
e 7 48
e 7 58
e 7 59
e 7 60
e 7 61
e 7 62
e 7 63
e 7 64
e 7 65
e 7 66
e 7 67
e 7 69
e 7 89
e 7 90
e 7 91
e 7 92
e 7 93
e 8 9
e 8 14
e 8 20
e 8 22
e 8 28
e 8 31
e 8 32
e 8 33
e 8 34
e 8 45
e 8 48
e 8 58
e 8 59
e 8 60
e 8 61
e 8 62
e 8 63
e 8 64
e 8 65
e 8 66
e 8 67
e 8 68
e 8 69
e 8 89
e 8 90
e 8 91
e 8 92
e 8 93
e 9 12
e 9 13
e 9 38
e 9 39
e 9 41
e 9 48
e 9 58
e 9 59
e 9 60
e 9 61
e 9 62
e 9 63
e 9 64
e 9 65
e 9 66
e 9 89
e 9 90
e 9 91
e 9 92
e 9 93
e 9 99
e 10 12
e 10 13
e 10 19
e 10 24
e 10 35
e 10 40
e 10 48
e 10 58
e 10 59
e 10 60
e 10 61
e 10 62
e 10 63
e 10 64
e 10 65
e 10 66
e 10 89
e 10 90
e 10 91
e 10 92
e 10 93
e 11 20
e 11 35
e 11 45
e 11 48
e 11 51
e 11 58
e 11 59
e 11 60
e 11 61
e 11 62
e 11 63
e 11 64
e 11 65
e 11 66
e 11 89
e 11 90
e 11 93
e 12 15
e 12 17
e 12 18
e 12 24
e 12 28
e 12 44
e 12 58
e 12 59
e 12 60
e 12 61
e 12 62
e 12 63
e 12 65
e 12 66
e 13 15
e 13 33
e 13 36
e 13 39
e 13 42
e 13 48
e 13 58
e 13 59
e 13 60
e 13 61
e 13 63
e 13 64
e 13 65
e 13 66
e 14 16
e 14 29
e 14 31
e 14 32
e 14 37
e 14 38
e 14 47
e 14 48
e 14 50
e 14 58
e 14 59
e 14 60
e 14 61
e 14 62
e 14 63
e 14 64
e 14 65
e 14 66
e 15 19
e 15 27
e 15 32
e 15 33
e 15 37
e 15 39
e 15 45
e 15 46
e 15 47
e 15 48
e 15 58
e 15 59
e 15 60
e 15 61
e 15 62
e 15 63
e 15 64
e 15 65
e 15 66
e 16 17
e 16 19
e 16 29
e 16 34
e 16 38
e 16 45
e 16 47
e 16 48
e 16 58
e 16 59
e 16 60
e 16 61
e 16 62
e 16 63
e 16 64
e 16 65
e 16 66
e 17 18
e 17 25
e 17 26
e 17 41
e 17 46
e 17 48
e 17 58
e 17 59
e 17 60
e 17 61
e 17 62
e 17 63
e 17 64
e 17 65
e 17 66
e 18 30
e 18 47
e 18 48
e 18 58
e 18 59
e 18 60
e 18 61
e 18 62
e 18 63
e 18 64
e 18 65
e 18 66
e 19 20
e 19 25
e 19 41
e 19 42
e 19 43
e 19 45
e 19 48
e 19 58
e 19 59
e 19 60
e 19 61
e 19 62
e 19 63
e 19 64
e 19 65
e 19 66
e 20 21
e 20 31
e 20 43
e 20 48
e 20 58
e 20 59
e 20 60
e 20 61
e 20 62
e 20 63
e 20 64
e 20 65
e 20 66
e 20 82
e 21 22
e 21 24
e 21 26
e 21 27
e 21 31
e 21 34
e 21 41
e 21 48
e 21 58
e 21 59
e 21 60
e 21 61
e 21 62
e 21 63
e 21 64
e 21 65
e 21 66
e 22 24
e 22 26
e 22 28
e 22 32
e 22 34
e 22 42
e 22 47
e 22 48
e 22 58
e 22 59
e 22 60
e 22 61
e 22 62
e 22 63
e 22 64
e 22 65
e 22 66
e 22 89
e 23 28
e 23 38
e 23 46
e 23 47
e 23 48
e 23 58
e 23 59
e 23 60
e 23 61
e 23 62
e 23 63
e 23 64
e 23 65
e 23 66
e 23 86
e 24 28
e 24 39
e 24 41
e 24 45
e 24 48
e 24 59
e 24 60
e 24 61
e 24 62
e 24 63
e 24 64
e 24 65
e 24 66
e 24 67
e 24 69
e 24 100
e 25 34
e 25 39
e 25 41
e 25 42
e 25 43
e 25 47
e 26 33
e 26 34
e 26 39
e 26 40
e 26 44
e 26 45
e 26 47
e 26 55
e 27 28
e 27 34
e 27 35
e 27 38
e 27 40
e 27 43
e 28 31
e 28 40
e 28 46
e 28 47
e 28 55
e 29 31
e 29 33
e 29 34
e 29 39
e 29 42
e 29 44
e 29 47
e 29 58
e 29 59
e 29 61
e 29 62
e 29 63
e 29 85
e 29 91
e 29 94
e 29 96
e 29 98
e 30 31
e 30 34
e 30 41
e 30 47
e 30 54
e 30 58
e 30 59
e 30 60
e 30 61
e 30 63
e 30 64
e 30 74
e 30 82
e 31 32
e 31 35
e 31 36
e 31 38
e 31 41
e 31 55
e 31 58
e 31 60
e 31 61
e 31 63
e 31 64
e 31 80
e 31 100
e 32 39
e 32 42
e 32 43
e 32 45
e 32 47
e 32 58
e 32 59
e 32 60
e 32 62
e 32 63
e 32 64
e 32 66
e 32 68
e 32 74
e 32 75
e 32 85
e 32 97
e 33 44
e 33 62
e 33 63
e 33 65
e 33 69
e 33 83
e 34 37
e 35 37
e 35 44
e 36 37
e 36 38
e 36 39
e 36 40
e 36 41
e 36 42
e 37 40
e 37 43
e 37 57
e 39 48
e 40 43
e 40 45
e 40 46
e 41 43
e 41 44
e 42 46
e 42 48
e 42 51
e 43 46
e 43 53
e 44 48
e 45 46
e 46 50
e 47 53
e 49 51
e 49 53
e 49 56
e 50 56
e 53 56
e 54 56
e 55 57
e 57 87
e 58 59
e 58 66
e 58 81
e 58 84
e 58 85
e 58 87
e 58 95
e 58 97
e 58 98
e 58 99
e 58 100
e 59 65
e 59 76
e 59 78
e 59 81
e 59 82
e 59 89
e 59 93
e 59 94
e 59 96
e 59 97
e 59 99
e 60 63
e 60 70
e 60 73
e 60 77
e 60 78
e 60 79
e 60 83
e 60 88
e 60 89
e 60 97
e 60 99
e 60 100
e 61 73
e 61 79
e 61 80
e 61 81
e 61 89
e 61 90
e 61 95
e 61 97
e 61 99
e 62 66
e 62 68
e 62 85
e 62 86
e 62 94
e 62 96
e 62 99
e 63 65
e 63 71
e 63 72
e 63 73
e 63 75
e 63 81
e 63 85
e 63 90
e 63 94
e 63 99
e 63 100
e 64 65
e 64 70
e 64 72
e 64 75
e 64 81
e 64 83
e 64 96
e 64 98
e 65 67
e 65 74
e 65 76
e 65 82
e 65 83
e 65 88
e 65 94
e 65 99
e 65 100
e 66 75
e 66 77
e 66 80
e 66 84
e 66 89
e 66 90
e 66 95
e 66 98
e 66 100
e 67 69
e 67 71
e 67 72
e 67 77
e 67 88
e 67 94
e 67 95
e 67 98
e 68 69
e 68 74
e 68 82
e 68 83
e 68 85
e 68 88
e 68 90
e 68 97
e 68 99
e 68 100
e 69 71
e 69 76
e 69 78
e 69 81
e 69 94
e 69 97
e 69 99
e 70 72
e 70 79
e 70 81
e 70 87
e 70 88
e 70 100
e 71 72
e 71 78
e 71 85
e 71 86
e 71 91
e 71 95
e 71 98
e 71 99
e 72 73
e 72 76
e 72 79
e 72 93
e 72 98
e 72 99
e 73 75
e 73 80
e 73 85
e 73 86
e 73 89
e 73 90
e 73 91
e 73 93
e 73 95
e 74 75
e 74 76
e 74 77
e 74 80
e 74 82
e 74 91
e 74 92
e 74 95
e 74 96
e 74 97
e 74 98
e 74 99
e 74 100
e 75 77
e 75 90
e 75 93
e 75 94
e 75 99
e 76 80
e 76 83
e 76 91
e 76 99
e 76 100
e 77 80
e 77 84
e 77 94
e 77 97
e 77 98
e 77 99
e 78 80
e 78 83
e 78 84
e 78 85
e 78 88
e 78 94
e 78 100
e 79 86
e 79 87
e 79 94
e 79 96
e 79 98
e 79 99
e 80 81
e 80 85
e 80 86
e 80 87
e 80 89
e 80 93
e 80 98
e 80 99
e 80 100
e 81 82
e 82 85
e 82 97
e 82 98
e 82 100
e 83 84
e 83 88
e 83 97
e 83 98
e 84 85
e 84 95
e 84 96
e 84 98
e 85 89
e 85 96
e 85 98
e 86 91
e 86 95
e 86 96
e 86 98
e 86 100
e 87 90
e 87 91
e 87 96
e 87 98
e 87 99
e 87 100
e 88 92
e 88 93
e 88 97
e 88 98
e 88 99
e 89 96
e 89 97
e 89 100
e 90 91
e 90 94
e 90 95
e 90 96
e 90 99
e 91 93
e 91 97
e 91 99
e 92 96
e 92 99
e 92 100
e 93 96
e 93 97
e 93 100
e 94 96
e 94 99
e 95 99
e 95 100
e 97 100
e 98 99
